CMPL model generation - running

CMPL version: 1.11.0
Authors: Thomas Schleiff, Mike Steglich
Distributed under the GPLv3 

create model instance ...
write model instance ...
CMPL model generation - finished

Solver - running


Welcome to IBM(R) ILOG(R) CPLEX(R) Interactive Optimizer 12.7.1.0
  with Simplex, Mixed Integer & Barrier Optimizers
5725-A06 5725-A29 5724-Y48 5724-Y49 5724-Y54 5724-Y55 5655-Y21
Copyright IBM Corp. 1988, 2017.  All Rights Reserved.

Type 'help' for a list of available commands.
Type 'help' followed by a command name for more
information on commands.

CPLEX> Specified objective sense: MINIMIZE
Selected objective  name:  line[1]
Selected RHS        name:  RHS
Selected bound      name:  BOUND
Problem '/tmp/cmpl.T24475.mps' read.
Read time = 0.05 sec. (8.18 ticks)
CPLEX> CPXPARAM_Read_APIEncoding                        "UTF-8"
Tried aggregator 3 times.
MIP Presolve eliminated 19116 rows and 30470 columns.
MIP Presolve modified 340 coefficients.
Aggregator did 710 substitutions.
Reduced MIP has 2529 rows, 3413 columns, and 9945 nonzeros.
Reduced MIP has 3245 binaries, 0 generals, 0 SOSs, and 0 indicators.
Presolve time = 0.05 sec. (40.72 ticks)
Found incumbent of value 1255.230397 after 0.09 sec. (66.83 ticks)
Probing fixed 15 vars, tightened 0 bounds.
Probing time = 0.01 sec. (4.49 ticks)
Tried aggregator 1 time.
MIP Presolve eliminated 0 rows and 15 columns.
MIP Presolve modified 75 coefficients.
Reduced MIP has 2529 rows, 3398 columns, and 9915 nonzeros.
Reduced MIP has 3398 binaries, 0 generals, 0 SOSs, and 0 indicators.
Presolve time = 0.01 sec. (8.40 ticks)
Probing time = 0.01 sec. (2.71 ticks)
Clique table members: 6052.
MIP emphasis: balance optimality and feasibility.
MIP search method: dynamic search.
Parallel mode: none, using 1 thread.
Root relaxation solution time = 0.01 sec. (6.18 ticks)

        Nodes                                         Cuts/
   Node  Left     Objective  IInf  Best Integer    Best Bound    ItCnt     Gap

*     0+    0                         1255.2304      -18.1648           101.45%
      0     0      351.7222     2     1255.2304      351.7222      254   71.98%
*     0+    0                          353.7533      351.7222             0.57%
*     0+    0                          351.7793      351.7222             0.02%
      0     0        cutoff            351.7793                    254    0.00%
Elapsed time = 0.16 sec. (104.74 ticks, tree = 0.01 MB, solutions = 3)

Root node processing (before b&c):
  Real time             =    0.16 sec. (106.23 ticks)
Sequential b&c:
  Real time             =    0.00 sec. (0.00 ticks)
                          ------------
Total (root+branch&cut) =    0.16 sec. (106.23 ticks)

Solution pool: 3 solutions saved.

MIP - Integer optimal solution:  Objective =  3.5177929600e+02
Solution time =    0.16 sec.  Iterations = 254  Nodes = 0
Deterministic time = 106.33 ticks  (664.08 ticks/sec)

CPLEX> Incumbent solution written to file '/tmp/cmpl.T24475.gsol'.
CPLEX> 
CMPL: Time used for model generation: 0 seconds
CMPL: Time used for solving the model: 1 seconds


Solution written to ASCII file: results/output_generated_conf_0.7/2016-07-04-4/fair-nonlinear.sol

Solver - finished
